1419.73 0
0 112 194 53 192 104 183 144 74 24 63 0
0 105 198 160 23 116 62 185 90 115 184 197 196 0
0 126 40 130 187 97 72 147 106 44 55 151 0
0 54 157 101 64 28 93 156 114 142 22 186 86 61 0
0 120 48 59 47 171 173 21 82 121 140 94 2 0
0 127 175 176 8 102 178 78 19 177 180 35 7 51 0
0 6 33 193 191 1 158 67 159 49 182 16 0
0 153 15 154 124 20 37 138 166 122 36 155 174 172 0
0 95 17 57 189 75 162 31 131 80 10 129 71 26 0
0 125 45 58 79 88 5 103 29 98 30 139 152 0
0 188 117 3 181 107 145 73 146 18 135 92 148 163 110 161 0
0 96 195 136 199 43 190 41 42 68 143 89 137 113 91 141 66 0
0 4 87 111 27 83 123 13 99 179 65 46 34 0
0 60 149 132 69 84 134 85 14 133 128 70 167 0
0 150 108 52 11 170 164 165 38 119 77 169 168 0
0 76 32 118 56 25 9 39 109 12 50 100 81 0
